c nombre: 5
c densidad: 0.1
p edges 70 228
e 1 7
e 1 13
e 1 21
e 1 36
e 1 51
e 1 61
e 2 11
e 2 22
e 2 32
e 2 44
e 2 47
e 3 21
e 3 22
e 3 33
e 3 34
e 3 40
e 3 56
e 3 60
e 3 66
e 4 16
e 4 23
e 4 24
e 4 32
e 4 40
e 4 44
e 4 45
e 4 48
e 4 52
e 4 57
e 4 68
e 5 6
e 5 8
e 5 10
e 5 16
e 5 25
e 5 32
e 5 44
e 5 53
e 5 63
e 6 10
e 6 12
e 6 16
e 6 33
e 6 39
e 6 65
e 6 68
e 7 20
e 7 24
e 7 31
e 7 55
e 7 64
e 7 70
e 8 19
e 8 31
e 8 42
e 8 48
e 8 70
e 9 17
e 9 30
e 9 37
e 9 41
e 9 60
e 10 23
e 10 25
e 10 50
e 10 55
e 10 62
e 11 14
e 11 15
e 11 26
e 11 32
e 11 33
e 11 41
e 11 53
e 11 61
e 12 45
e 12 59
e 12 63
e 12 67
e 13 18
e 13 48
e 13 58
e 14 18
e 14 25
e 14 54
e 14 70
e 15 19
e 15 45
e 15 51
e 15 60
e 15 63
e 16 28
e 16 34
e 16 41
e 16 52
e 17 25
e 17 34
e 17 53
e 17 56
e 17 61
e 18 19
e 18 23
e 18 51
e 18 56
e 18 63
e 18 66
e 19 41
e 19 43
e 19 46
e 19 62
e 20 41
e 20 45
e 21 38
e 21 42
e 21 45
e 21 49
e 21 50
e 21 52
e 22 36
e 22 42
e 22 68
e 22 69
e 23 34
e 23 40
e 23 41
e 23 57
e 23 63
e 23 64
e 23 67
e 24 37
e 24 40
e 24 60
e 25 33
e 25 35
e 25 44
e 25 51
e 25 61
e 26 36
e 26 42
e 26 44
e 26 52
e 26 57
e 27 29
e 27 39
e 27 67
e 28 35
e 28 44
e 28 49
e 28 68
e 29 43
e 29 54
e 29 55
e 29 58
e 29 60
e 29 68
e 30 49
e 30 50
e 30 56
e 30 66
e 30 68
e 30 69
e 31 34
e 31 42
e 32 49
e 33 44
e 33 45
e 33 53
e 33 59
e 33 61
e 34 42
e 34 44
e 34 52
e 34 53
e 34 56
e 35 40
e 36 44
e 36 53
e 36 70
e 37 45
e 37 49
e 37 59
e 38 58
e 38 63
e 38 66
e 39 46
e 39 54
e 39 56
e 39 60
e 39 63
e 39 66
e 40 54
e 40 55
e 41 50
e 41 60
e 41 62
e 41 65
e 42 69
e 43 70
e 44 51
e 45 49
e 46 48
e 47 48
e 47 52
e 47 68
e 48 65
e 49 50
e 50 54
e 50 56
e 51 54
e 51 70
e 52 58
e 53 61
e 53 65
e 54 55
e 54 68
e 55 59
e 56 68
e 57 63
e 57 67
e 58 62
e 58 66
e 59 69
e 61 64
e 61 67
e 62 65
e 62 66
e 62 70
e 63 64
